data/solutions/recovery/degenerate/intermediate/binding/degenerate_intermediate_instance23/100.sol
Elapsed time: 0.05
Upper bound: 239501568.0
Planning weighted value: 8.8473723271e+11
C[0]=239501568.0
C[1]=238387903.0
C[2]=238049446.0
C[3]=237509920.0
C[4]=230358007.0
C[5]=225749959.0
C[6]=218373801.0
C[7]=214388981.0
C[8]=214293545.0
C[9]=214209005.0
C[10]=211583765.0
C[11]=0.0
y[0]=1
y[1]=10
y[2]=8
y[3]=9
y[4]=3
y[5]=0
y[6]=10
y[7]=5
y[8]=2
y[9]=3
y[10]=6
y[11]=5
y[12]=2
y[13]=3
y[14]=2
y[15]=4
y[16]=1
y[17]=4
y[18]=5
y[19]=1
y[20]=7
y[21]=4
y[22]=8
y[23]=6
y[24]=5
y[25]=2
y[26]=9
y[27]=2
y[28]=6
y[29]=7
y[30]=10
y[31]=9
y[32]=3
y[33]=4
y[34]=6
y[35]=10
y[36]=10
y[37]=3
y[38]=3
y[39]=10
y[40]=0
y[41]=0
y[42]=8
y[43]=4
y[44]=3
y[45]=1
y[46]=1
y[47]=3
y[48]=8
y[49]=10
y[50]=10
y[51]=0
y[52]=5
y[53]=8
y[54]=0
y[55]=1
y[56]=8
y[57]=6
y[58]=2
y[59]=2
y[60]=7
y[61]=7
y[62]=7
y[63]=9
y[64]=1
y[65]=6
y[66]=4
y[67]=1
y[68]=9
y[69]=0
y[70]=3
y[71]=3
y[72]=8
y[73]=5
y[74]=0
y[75]=2
y[76]=4
y[77]=1
