data/solutions/recovery/degenerate/intermediate/binding/degenerate_intermediate_instance23/100.log

Log started (V12.6.3.0) Sun Apr 22 12:33:14 2018

New value for default parallel thread count: 1

Problem '/tmp/tmpDbL214.pyomo.lp' read.
Read time = 0.01 sec. (0.84 ticks)

Problem name         : /tmp/tmpDbL214.pyomo.lp
Objective sense      : Minimize
Variables            :     950  [Nneg: 1,  Binary: 936,  General Integer: 13]
Objective nonzeros   :       1
Linear constraints   :     182  [Less: 90,  Equal: 92]
  Nonzeros           :   60259
  RHS nonzeros       :      79

Variables            : Min LB: 0.000000         Max UB: 1.000000       
Objective nonzeros   : Min   : 1.000000         Max   : 1.000000       
Linear constraints   :
  Nonzeros           : Min   : 1.000000         Max   : 6.145599e+07   
  RHS nonzeros       : Min   : 1.000000         Max   : 1.000000       
Tried aggregator 1 time.
MIP Presolve eliminated 150 rows and 828 columns.
Reduced MIP has 32 rows, 122 columns, and 253 nonzeros.
Reduced MIP has 110 binaries, 12 generals, 0 SOSs, and 0 indicators.
Presolve time = 0.00 sec. (3.34 ticks)
Found incumbent of value 5.3183119e+08 after 0.01 sec. (4.84 ticks)
Probing time = 0.00 sec. (0.37 ticks)
Tried aggregator 1 time.
Reduced MIP has 32 rows, 122 columns, and 253 nonzeros.
Reduced MIP has 110 binaries, 12 generals, 0 SOSs, and 0 indicators.
Presolve time = 0.00 sec. (0.21 ticks)
Probing time = 0.00 sec. (0.37 ticks)
Clique table members: 10.
MIP emphasis: balance optimality and feasibility.
MIP search method: dynamic search.
Parallel mode: none, using 1 thread.
Root relaxation solution time = 0.00 sec. (0.29 ticks)

        Nodes                                         Cuts/
   Node  Left     Objective  IInf  Best Integer    Best Bound    ItCnt     Gap

*     0+    0                       5.31831e+08   2.25750e+08            57.55%
      0     0   2.25750e+08    15   5.31831e+08   2.25750e+08       67   57.55%
      0     0   2.27553e+08    31   5.31831e+08     Fract: 11      112   57.21%
*     0+    0                       2.69381e+08   2.27553e+08            15.53%
*     0+    0                       2.57385e+08   2.27553e+08            11.59%
      0     2   2.27554e+08    31   2.57385e+08   2.27554e+08      114   11.59%
Elapsed time = 0.01 sec. (9.86 ticks, tree = 0.01 MB, solutions = 3)
*    20+   13                       2.53672e+08   2.27560e+08            10.29%
*    30+   19                       2.51164e+08   2.27560e+08             9.40%
*    35    13      integral     0   2.39871e+08   2.27560e+08      349    5.13%
*    40+   10                       2.39502e+08   2.27563e+08             4.98%

Gomory fractional cuts applied:  6

Root node processing (before b&c):
  Real time             =    0.01 sec. (9.92 ticks)
Sequential b&c:
  Real time             =    0.01 sec. (4.93 ticks)
                          ------------
Total (root+branch&cut) =    0.02 sec. (14.85 ticks)

Solution pool: 7 solutions saved.

MIP - Integer optimal solution:  Objective =  2.3950156800e+08
Solution time =    0.02 sec.  Iterations = 516  Nodes = 112
Deterministic time = 14.85 ticks  (756.30 ticks/sec)


Incumbent solution written to file '/tmp/tmpH9OvIz.cplex.sol'.
